words_hard_train/3095.qaiger
aag 108 16 0 1 92
2
4
8
10
24
32
42
56
64
72
100
110
140
148
176
180
217
6 3 4
12 8 11
14 6 13
16 8 2
18 15 17
20 11 5
22 19 21
26 17 25
28 16 24
30 27 29
34 30 33
36 22 35
38 31 32
40 37 39
44 29 43
46 28 42
48 45 47
50 41 49
52 20 33
54 50 52
58 47 57
60 46 56
62 59 61
66 62 65
68 55 67
70 40 48
74 71 72
76 75 51
78 68 77
80 63 64
82 67 81
84 76 83
86 77 82
88 85 87
90 89 64
92 79 91
94 52 73
96 94 65
98 92 97
102 97 100
104 96 101
106 103 105
108 87 81
112 61 111
114 60 110
116 113 115
118 116 101
120 117 100
122 119 121
124 108 123
126 109 122
128 125 127
130 107 129
132 98 131
134 106 128
136 133 135
138 127 121
142 115 141
144 114 140
146 143 145
150 146 149
152 147 148
154 151 153
156 138 155
158 139 154
160 157 159
162 105 148
164 104 149
166 163 165
168 161 167
170 137 169
172 160 166
174 171 173
178 175 176
182 180 177
184 181 176
186 183 185
188 187 144
190 186 145
192 189 191
194 159 153
196 193 195
198 192 194
200 197 199
202 201 164
204 179 203
206 174 177
208 200 165
210 207 209
212 204 211
214 178 202
216 213 215
i0 2 y2[1]
i1 1 x2[1]
i2 2 y2[0]
i3 1 x2[0]
i4 2 y2[2]
i5 1 x2[2]
i6 2 y2[3]
i7 2 y2[4]
i8 1 x2[4]
i9 1 x2[3]
i10 1 x2[5]
i11 2 y2[5]
i12 2 y2[6]
i13 1 x2[6]
i14 1 x2[7]
i15 2 y2[7]
o0 bv[0]
c
simplified
  >
    1 x2
    subtract
      1 x2
      subtract
        1
        invert
          2 y2
