words_hard_train/3095.qaiger.qdimacs
p cnf 108 277
a 32 2 36 5 74 16 50 88 0
e 1 3 4 6 7 8 9 10 11 12 13 14 15 17 18 19 20 21 22 23 24 25 26 27 28 29 30 31 33 34 35 37 38 39 40 41 42 43 44 45 46 47 48 49 51 52 53 54 55 56 57 58 59 60 61 62 63 64 65 66 67 68 69 70 71 72 73 75 76 77 78 79 80 81 82 83 84 85 86 87 89 90 91 92 93 94 95 96 97 98 99 100 101 102 103 104 105 106 107 108 0
1 -2 3 0
-1 -3 0
2 -3 0
-4 5 6 0
4 -6 0
-5 -6 0
-3 6 7 0
3 -7 0
-6 -7 0
-4 -1 8 0
4 -8 0
1 -8 0
7 8 9 0
-7 -9 0
-8 -9 0
5 2 10 0
-5 -10 0
-2 -10 0
9 10 11 0
-9 -11 0
-10 -11 0
8 12 13 0
-8 -13 0
-12 -13 0
-8 -12 14 0
8 -14 0
12 -14 0
13 14 15 0
-13 -15 0
-14 -15 0
-15 16 17 0
15 -17 0
-16 -17 0
-11 17 18 0
11 -18 0
-17 -18 0
15 -16 19 0
-15 -19 0
16 -19 0
18 19 20 0
-18 -20 0
-19 -20 0
14 21 22 0
-14 -22 0
-21 -22 0
-14 -21 23 0
14 -23 0
21 -23 0
22 23 24 0
-22 -24 0
-23 -24 0
20 24 25 0
-20 -25 0
-24 -25 0
-10 16 26 0
10 -26 0
-16 -26 0
-25 -26 27 0
25 -27 0
26 -27 0
23 28 29 0
-23 -29 0
-28 -29 0
-23 -28 30 0
23 -30 0
28 -30 0
29 30 31 0
-29 -31 0
-30 -31 0
-31 32 33 0
31 -33 0
-32 -33 0
27 33 34 0
-27 -34 0
-33 -34 0
-20 -24 35 0
20 -35 0
24 -35 0
35 -36 37 0
-35 -37 0
36 -37 0
37 25 38 0
-37 -38 0
-25 -38 0
-34 38 39 0
34 -39 0
-38 -39 0
31 -32 40 0
-31 -40 0
32 -40 0
33 40 41 0
-33 -41 0
-40 -41 0
-38 41 42 0
38 -42 0
-41 -42 0
38 -41 43 0
-38 -43 0
41 -43 0
42 43 44 0
-42 -44 0
-43 -44 0
44 -32 45 0
-44 -45 0
32 -45 0
39 45 46 0
-39 -46 0
-45 -46 0
-26 36 47 0
26 -47 0
-36 -47 0
-47 32 48 0
47 -48 0
-32 -48 0
-46 48 49 0
46 -49 0
-48 -49 0
48 -50 51 0
-48 -51 0
50 -51 0
-48 50 52 0
48 -52 0
-50 -52 0
51 52 53 0
-51 -53 0
-52 -53 0
43 40 54 0
-43 -54 0
-40 -54 0
30 55 56 0
-30 -56 0
-55 -56 0
-30 -55 57 0
30 -57 0
55 -57 0
56 57 58 0
-56 -58 0
-57 -58 0
-58 50 59 0
58 -59 0
-50 -59 0
58 -50 60 0
-58 -60 0
50 -60 0
59 60 61 0
-59 -61 0
-60 -61 0
-54 61 62 0
54 -62 0
-61 -62 0
54 -61 63 0
-54 -63 0
61 -63 0
62 63 64 0
-62 -64 0
-63 -64 0
53 64 65 0
-53 -65 0
-64 -65 0
-49 65 66 0
49 -66 0
-65 -66 0
-53 -64 67 0
53 -67 0
64 -67 0
66 67 68 0
-66 -68 0
-67 -68 0
63 60 69 0
-63 -69 0
-60 -69 0
57 70 71 0
-57 -71 0
-70 -71 0
-57 -70 72 0
57 -72 0
70 -72 0
71 72 73 0
-71 -73 0
-72 -73 0
-73 74 75 0
73 -75 0
-74 -75 0
73 -74 76 0
-73 -76 0
74 -76 0
75 76 77 0
-75 -77 0
-76 -77 0
-69 77 78 0
69 -78 0
-77 -78 0
69 -77 79 0
-69 -79 0
77 -79 0
78 79 80 0
-78 -80 0
-79 -80 0
52 -74 81 0
-52 -81 0
74 -81 0
-52 74 82 0
52 -82 0
-74 -82 0
81 82 83 0
-81 -83 0
-82 -83 0
80 83 84 0
-80 -84 0
-83 -84 0
68 84 85 0
-68 -85 0
-84 -85 0
-80 -83 86 0
80 -86 0
83 -86 0
85 86 87 0
-85 -87 0
-86 -87 0
87 -88 89 0
-87 -89 0
88 -89 0
-90 88 91 0
90 -91 0
-88 -91 0
90 -88 92 0
-90 -92 0
88 -92 0
91 92 93 0
-91 -93 0
-92 -93 0
93 -72 94 0
-93 -94 0
72 -94 0
-93 72 95 0
93 -95 0
-72 -95 0
94 95 96 0
-94 -96 0
-95 -96 0
79 76 97 0
-79 -97 0
-76 -97 0
96 97 98 0
-96 -98 0
-97 -98 0
-96 -97 99 0
96 -99 0
97 -99 0
98 99 100 0
-98 -100 0
-99 -100 0
100 -82 101 0
-100 -101 0
82 -101 0
89 101 102 0
-89 -102 0
-101 -102 0
-87 88 103 0
87 -103 0
-88 -103 0
-100 82 104 0
100 -104 0
-82 -104 0
103 104 105 0
-103 -105 0
-104 -105 0
-102 105 106 0
102 -106 0
-105 -106 0
-89 -101 107 0
89 -107 0
101 -107 0
106 107 108 0
-106 -108 0
-107 -108 0
-108 0
